(set-logic QF_S)
(declare-fun var0 () String)
(declare-fun var4 () String)
(declare-fun var3 () String)
(declare-fun var2 () String)
(declare-fun var1 () String)
(assert (= var0 (Concat (Concat var4 var3) (Concat var2 var1))))
(assert (= var0 "solution"))
(check-sat)